proyfinal/src/viki/013/experimentInOfficeAgust.take6.output/31a10a0f-4318-4782-a2cb-fd055b28c55a.als.dat
{'cnf.clauses': '118081',
 'cnf.totvars': '69608',
 'conflict literals': '28',
 'conflicts': '16',
 'decisions': '7193',
 'memused.mb': '15.23',
 'outcome': 'UNSAT',
 'propagations': '31308',
 'restarts': '1',
 'solver.msecs': 29,
 'task.msecs': 82}
