proyfinal/src/viki/013/experimentInOfficeAgust.take6.output/31a10a0f-4318-4782-a2cb-fd055b28c55a.als.out
Reading from standard input... Use '--help' for help.
============================[ Problem Statistics ]=============================
|                                                                             |
|  Number of variables:         69608                                         |
|  Number of clauses:          118081                                         |
|  Parse time:                   0.02 s                                       |
|                                                                             |
============================[ Search Statistics ]==============================
| Conflicts |          ORIGINAL         |          LEARNT          | Progress |
|           |    Vars  Clauses Literals |    Limit  Clauses Lit/Cl |          |
===============================================================================
===============================================================================
restarts              : 1
conflicts             : 16             (537 /sec)
decisions             : 7193           (0.00 % random) (241481 /sec)
propagations          : 31308          (1051063 /sec)
conflict literals     : 28             (0.00 % deleted)
Memory used           : 15.23 MB
CPU time              : 0.029787 s

UNSATISFIABLE
